p cnf 897
-14 -280
-15 -283
-16 -286
-17 -289
-18 -292
-19 -295
-20 -298
-21 -301
-22 -304
-23 -307
-24 -310
-25 -313
-26 -316
-27 317
-28 318
-29 319
-30 320
-31 321
-32 322
-33 323
-34 -15
-34 -16
15 16 34
-35 -17
-35 -18
17 18 35
-36 -19
-36 -20
19 20 36
-37 -21
-37 -22
21 22 37
-38 -23
-38 -24
23 24 38
-39 -25
-39 -26
25 26 39
-40 -27
-40 -28
27 28 40
-41 -29
-41 -30
29 30 41
-42 -31
-42 -32
31 32 42
-43 34
-43 35
-34 -35 43
-44 36
-44 37
-36 -37 44
-45 38
-45 39
-38 -39 45
-46 40
-46 41
-40 -41 46
-47 -33
-47 42
33 -42 47
-48 43
-48 44
-43 -44 48
-49 45
-49 46
-45 -46 49
-50 48
-50 49
-48 -49 50
-51 47
-51 50
-47 -50 51
-52 -14
-52 15
14 -15 52
-53 14
-53 -15
-14 15 53
-54 -52
-54 -53
52 53 54
-55 14
-55 15
-14 -15 55
-56 -14
-56 -54
14 54 56
-57 14
-57 54
-14 -54 57
-58 -56
-58 -57
56 57 58
-59 14
-59 -54
-14 54 59
-60 -55
-60 -59
55 59 60
-61 -15
-61 16
15 -16 61
-62 15
-62 -16
-15 16 62
-63 -61
-63 -62
61 62 63
-64 15
-64 16
-15 -16 64
-65 60
-65 -63
-60 63 65
-66 -60
-66 63
60 -63 66
-67 -65
-67 -66
65 66 67
-68 -60
-68 -63
60 63 68
-69 -64
-69 -68
64 68 69
-70 -16
-70 17
16 -17 70
-71 16
-71 -17
-16 17 71
-72 -70
-72 -71
70 71 72
-73 16
-73 17
-16 -17 73
-74 69
-74 -72
-69 72 74
-75 -69
-75 72
69 -72 75
-76 -74
-76 -75
74 75 76
-77 -69
-77 -72
69 72 77
-78 -73
-78 -77
73 77 78
-79 -17
-79 18
17 -18 79
-80 17
-80 -18
-17 18 80
-81 -79
-81 -80
79 80 81
-82 17
-82 18
-17 -18 82
-83 78
-83 -81
-78 81 83
-84 -78
-84 81
78 -81 84
-85 -83
-85 -84
83 84 85
-86 -78
-86 -81
78 81 86
-87 -82
-87 -86
82 86 87
-88 -18
-88 19
18 -19 88
-89 18
-89 -19
-18 19 89
-90 -88
-90 -89
88 89 90
-91 18
-91 19
-18 -19 91
-92 87
-92 -90
-87 90 92
-93 -87
-93 90
87 -90 93
-94 -92
-94 -93
92 93 94
-95 -87
-95 -90
87 90 95
-96 -91
-96 -95
91 95 96
-97 -19
-97 20
19 -20 97
-98 19
-98 -20
-19 20 98
-99 -97
-99 -98
97 98 99
-100 19
-100 20
-19 -20 100
-101 96
-101 -99
-96 99 101
-102 -96
-102 99
96 -99 102
-103 -101
-103 -102
101 102 103
-104 -96
-104 -99
96 99 104
-105 -100
-105 -104
100 104 105
-106 -20
-106 21
20 -21 106
-107 20
-107 -21
-20 21 107
-108 -106
-108 -107
106 107 108
-109 20
-109 21
-20 -21 109
-110 105
-110 -108
-105 108 110
-111 -105
-111 108
105 -108 111
-112 -110
-112 -111
110 111 112
-113 -105
-113 -108
105 108 113
-114 -109
-114 -113
109 113 114
-115 -21
-115 22
21 -22 115
-116 21
-116 -22
-21 22 116
-117 -115
-117 -116
115 116 117
-118 21
-118 22
-21 -22 118
-119 114
-119 -117
-114 117 119
-120 -114
-120 117
114 -117 120
-121 -119
-121 -120
119 120 121
-122 -114
-122 -117
114 117 122
-123 -118
-123 -122
118 122 123
-124 -22
-124 23
22 -23 124
-125 22
-125 -23
-22 23 125
-126 -124
-126 -125
124 125 126
-127 22
-127 23
-22 -23 127
-128 123
-128 -126
-123 126 128
-129 -123
-129 126
123 -126 129
-130 -128
-130 -129
128 129 130
-131 -123
-131 -126
123 126 131
-132 -127
-132 -131
127 131 132
-133 -23
-133 24
23 -24 133
-134 23
-134 -24
-23 24 134
-135 -133
-135 -134
133 134 135
-136 23
-136 24
-23 -24 136
-137 132
-137 -135
-132 135 137
-138 -132
-138 135
132 -135 138
-139 -137
-139 -138
137 138 139
-140 -132
-140 -135
132 135 140
-141 -136
-141 -140
136 140 141
-142 -24
-142 25
24 -25 142
-143 24
-143 -25
-24 25 143
-144 -142
-144 -143
142 143 144
-145 24
-145 25
-24 -25 145
-146 141
-146 -144
-141 144 146
-147 -141
-147 144
141 -144 147
-148 -146
-148 -147
146 147 148
-149 -141
-149 -144
141 144 149
-150 -145
-150 -149
145 149 150
-151 -25
-151 26
25 -26 151
-152 25
-152 -26
-25 26 152
-153 -151
-153 -152
151 152 153
-154 25
-154 26
-25 -26 154
-155 150
-155 -153
-150 153 155
-156 -150
-156 153
150 -153 156
-157 -155
-157 -156
155 156 157
-158 -150
-158 -153
150 153 158
-159 -154
-159 -158
154 158 159
-160 -26
-160 27
26 -27 160
-161 26
-161 -27
-26 27 161
-162 -160
-162 -161
160 161 162
-163 26
-163 27
-26 -27 163
-164 159
-164 -162
-159 162 164
-165 -159
-165 162
159 -162 165
-166 -164
-166 -165
164 165 166
-167 -159
-167 -162
159 162 167
-168 -163
-168 -167
163 167 168
-169 -27
-169 28
27 -28 169
-170 27
-170 -28
-27 28 170
-171 -169
-171 -170
169 170 171
-172 27
-172 28
-27 -28 172
-173 168
-173 -171
-168 171 173
-174 -168
-174 171
168 -171 174
-175 -173
-175 -174
173 174 175
-176 -168
-176 -171
168 171 176
-177 -172
-177 -176
172 176 177
-178 -28
-178 29
28 -29 178
-179 28
-179 -29
-28 29 179
-180 -178
-180 -179
178 179 180
-181 28
-181 29
-28 -29 181
-182 177
-182 -180
-177 180 182
-183 -177
-183 180
177 -180 183
-184 -182
-184 -183
182 183 184
-185 -177
-185 -180
177 180 185
-186 -181
-186 -185
181 185 186
-187 -29
-187 30
29 -30 187
-188 29
-188 -30
-29 30 188
-189 -187
-189 -188
187 188 189
-190 29
-190 30
-29 -30 190
-191 186
-191 -189
-186 189 191
-192 -186
-192 189
186 -189 192
-193 -191
-193 -192
191 192 193
-194 -186
-194 -189
186 189 194
-195 -190
-195 -194
190 194 195
-196 -30
-196 31
30 -31 196
-197 30
-197 -31
-30 31 197
-198 -196
-198 -197
196 197 198
-199 30
-199 31
-30 -31 199
-200 195
-200 -198
-195 198 200
-201 -195
-201 198
195 -198 201
-202 -200
-202 -201
200 201 202
-203 -195
-203 -198
195 198 203
-204 -199
-204 -203
199 203 204
-205 -31
-205 32
31 -32 205
-206 31
-206 -32
-31 32 206
-207 -205
-207 -206
205 206 207
-208 31
-208 32
-31 -32 208
-209 204
-209 -207
-204 207 209
-210 -204
-210 207
204 -207 210
-211 -209
-211 -210
209 210 211
-212 -204
-212 -207
204 207 212
-213 -208
-213 -212
208 212 213
-214 -32
-214 33
32 -33 214
-215 32
-215 -33
-32 33 215
-216 -214
-216 -215
214 215 216
-217 32
-217 33
-32 -33 217
-218 213
-218 -216
-213 216 218
-219 -213
-219 216
213 -216 219
-220 -218
-220 -219
218 219 220
-221 -213
-221 -216
213 216 221
-222 -217
-222 -221
217 221 222
-223 14
-223 -58
-14 58 223
-224 -14
-224 16
14 -16 224
-225 -223
-225 -224
223 224 225
-226 14
-226 -67
-14 67 226
-227 -14
-227 17
14 -17 227
-228 -226
-228 -227
226 227 228
-229 14
-229 -76
-14 76 229
-230 -14
-230 18
14 -18 230
-231 -229
-231 -230
229 230 231
-232 14
-232 -85
-14 85 232
-233 -14
-233 19
14 -19 233
-234 -232
-234 -233
232 233 234
-235 14
-235 -94
-14 94 235
-236 -14
-236 20
14 -20 236
-237 -235
-237 -236
235 236 237
-238 14
-238 -103
-14 103 238
-239 -14
-239 21
14 -21 239
-240 -238
-240 -239
238 239 240
-241 14
-241 -112
-14 112 241
-242 -14
-242 22
14 -22 242
-243 -241
-243 -242
241 242 243
-244 14
-244 -121
-14 121 244
-245 -14
-245 23
14 -23 245
-246 -244
-246 -245
244 245 246
-247 14
-247 -130
-14 130 247
-248 -14
-248 24
14 -24 248
-249 -247
-249 -248
247 248 249
-250 14
-250 -139
-14 139 250
-251 -14
-251 25
14 -25 251
-252 -250
-252 -251
250 251 252
-253 14
-253 -148
-14 148 253
-254 -14
-254 26
14 -26 254
-255 -253
-255 -254
253 254 255
-256 14
-256 -157
-14 157 256
-257 -14
-257 27
14 -27 257
-258 -256
-258 -257
256 257 258
-259 14
-259 -166
-14 166 259
-260 -14
-260 28
14 -28 260
-261 -259
-261 -260
259 260 261
-262 14
-262 -175
-14 175 262
-263 -14
-263 29
14 -29 263
-264 -262
-264 -263
262 263 264
-265 14
-265 -184
-14 184 265
-266 -14
-266 30
14 -30 266
-267 -265
-267 -266
265 266 267
-268 14
-268 -193
-14 193 268
-269 -14
-269 31
14 -31 269
-270 -268
-270 -269
268 269 270
-271 14
-271 -202
-14 202 271
-272 -14
-272 32
14 -32 272
-273 -271
-273 -272
271 272 273
-274 14
-274 -211
-14 211 274
-275 -14
-275 33
14 -33 275
-276 -274
-276 -275
274 275 276
-277 14
-277 -220
-14 220 277
-278 1
-278 51
-1 -51 278
-279 -51
-279 52
51 -52 279
-280 -278
-280 -279
278 279 280
-281 2
-281 51
-2 -51 281
-282 -51
-282 -225
51 225 282
-283 -281
-283 -282
281 282 283
-284 3
-284 51
-3 -51 284
-285 -51
-285 -228
51 228 285
-286 -284
-286 -285
284 285 286
-287 4
-287 51
-4 -51 287
-288 -51
-288 -231
51 231 288
-289 -287
-289 -288
287 288 289
-290 5
-290 51
-5 -51 290
-291 -51
-291 -234
51 234 291
-292 -290
-292 -291
290 291 292
-293 6
-293 51
-6 -51 293
-294 -51
-294 -237
51 237 294
-295 -293
-295 -294
293 294 295
-296 7
-296 51
-7 -51 296
-297 -51
-297 -240
51 240 297
-298 -296
-298 -297
296 297 298
-299 8
-299 51
-8 -51 299
-300 -51
-300 -243
51 243 300
-301 -299
-301 -300
299 300 301
-302 9
-302 51
-9 -51 302
-303 -51
-303 -246
51 246 303
-304 -302
-304 -303
302 303 304
-305 10
-305 51
-10 -51 305
-306 -51
-306 -249
51 249 306
-307 -305
-307 -306
305 306 307
-308 11
-308 51
-11 -51 308
-309 -51
-309 -252
51 252 309
-310 -308
-310 -309
308 309 310
-311 12
-311 51
-12 -51 311
-312 -51
-312 -255
51 255 312
-313 -311
-313 -312
311 312 313
-314 13
-314 51
-13 -51 314
-315 -51
-315 -258
51 258 315
-316 -314
-316 -315
314 315 316
-317 -51
-317 -261
51 261 317
-318 -51
-318 -264
51 264 318
-319 -51
-319 -267
51 267 319
-320 -51
-320 -270
51 270 320
-321 -51
-321 -273
51 273 321
-322 -51
-322 -276
51 276 322
-323 -51
-323 277
51 -277 323
-324 -33
-324 222
33 -222 324
-325 14
-325 -324
-14 324 325
325
